(set-logic QF_SLIA)
(declare-fun var0 () String)
(assert (not (str.in_re var0 (re.++ ((_ re.loop 17 671) (re.++ (re.union (str.to_re "C~_") (re.union (str.to_re "u") (re.union (str.to_re ";iQ") (str.to_re "zcD")))) (re.++ (re.union (str.to_re ":") (re.union (str.to_re "u1") (re.union (str.to_re "(") (str.to_re "{")))) (re.++ (re.union (str.to_re "Q#[") (re.union (str.to_re "|i") (re.union (str.to_re "0U") (str.to_re "W,")))) (re.union (str.to_re "n") (re.union (str.to_re "HY") (re.union (str.to_re "A") (str.to_re "mk")))))))) (re.++ ((_ re.loop 4 44) (re.++ (re.union (str.to_re "wqQ") (re.union (str.to_re ".-6") (re.union (str.to_re "y") (str.to_re "Nsv")))) (re.++ (re.union (str.to_re "^PE") (re.union (str.to_re "BK") (re.union (str.to_re "%(") (str.to_re "t!")))) (re.++ (re.union (str.to_re "\\-") (re.union (str.to_re "[p") (re.union (str.to_re "0c") (str.to_re "(jc")))) (re.union (str.to_re "<") (re.union (str.to_re "9") (re.union (str.to_re "<") (str.to_re "3")))))))) (re.++ ((_ re.loop 18 405) (re.++ (re.union (str.to_re "o^N") (re.union (str.to_re "'") (re.union (str.to_re "j;") (str.to_re "2")))) (re.++ (re.union (str.to_re "\u0022\\X") (re.union (str.to_re "r") (re.union (str.to_re "!") (str.to_re "V9$")))) (re.++ (re.union (str.to_re "}3g") (re.union (str.to_re "h") (re.union (str.to_re "Z") (str.to_re "EF;")))) (re.union (str.to_re "k") (re.union (str.to_re "\\(") (re.union (str.to_re "kG^") (str.to_re "+ni")))))))) ((_ re.loop 14 662) (re.++ (re.union (str.to_re "HlR") (re.union (str.to_re "?1") (re.union (str.to_re "v") (str.to_re "kU")))) (re.++ (re.union (str.to_re "{;") (re.union (str.to_re "~%") (re.union (str.to_re "M*2") (str.to_re "%")))) (re.++ (re.union (str.to_re "5") (re.union (str.to_re ",r") (re.union (str.to_re "~") (str.to_re "w>")))) (re.union (str.to_re "]Y") (re.union (str.to_re ";") (re.union (str.to_re "#*$") (str.to_re "^"))))))))))))))
(assert (not (str.in_re var0 (re.++ ((_ re.loop 8 183) (re.++ (re.union (str.to_re "h") (re.union (str.to_re "q") (re.union (str.to_re "aj") (str.to_re "%W#")))) (re.++ (re.union (str.to_re ",TC") (re.union (str.to_re "C^") (re.union (str.to_re "Y?") (str.to_re "r\u0022W")))) (re.++ (re.union (str.to_re "#") (re.union (str.to_re "~5g") (re.union (str.to_re "X") (str.to_re "X")))) (re.union (str.to_re "5F") (re.union (str.to_re "$D") (re.union (str.to_re "U_P") (str.to_re "Abz")))))))) (re.++ ((_ re.loop 3 876) (re.++ (re.union (str.to_re "+3") (re.union (str.to_re "7") (re.union (str.to_re "7s") (str.to_re "$")))) (re.++ (re.union (str.to_re "5q") (re.union (str.to_re "E%") (re.union (str.to_re "q") (str.to_re "G\u0022")))) (re.++ (re.union (str.to_re "U") (re.union (str.to_re "-i6") (re.union (str.to_re "_") (str.to_re "&")))) (re.union (str.to_re "vfZ") (re.union (str.to_re "T=") (re.union (str.to_re "9") (str.to_re "7t")))))))) (re.++ ((_ re.loop 18 608) (re.++ (re.union (str.to_re "8") (re.union (str.to_re "]4,") (re.union (str.to_re "~$I") (str.to_re "r")))) (re.++ (re.union (str.to_re "6") (re.union (str.to_re "k") (re.union (str.to_re "~p") (str.to_re "YT_")))) (re.++ (re.union (str.to_re "(Hc") (re.union (str.to_re "&mj") (re.union (str.to_re "qk0") (str.to_re "7%")))) (re.union (str.to_re "7") (re.union (str.to_re "D;") (re.union (str.to_re "[:") (str.to_re "u6/")))))))) ((_ re.loop 15 556) (re.++ (re.union (str.to_re "Ov") (re.union (str.to_re "%^D") (re.union (str.to_re "c") (str.to_re "Af")))) (re.++ (re.union (str.to_re "Q") (re.union (str.to_re "5") (re.union (str.to_re "N~V") (str.to_re "hE")))) (re.++ (re.union (str.to_re ";I") (re.union (str.to_re "B") (re.union (str.to_re "qWJ") (str.to_re "D")))) (re.union (str.to_re "MRb") (re.union (str.to_re "BL") (re.union (str.to_re "?GS") (str.to_re "@<m"))))))))))))))
(assert (not (str.in_re var0 (re.++ (re.* re.allchar) (re.++ (re.union (str.to_re "<") (re.union (str.to_re ">") (re.union (str.to_re "'") (re.union (str.to_re "\u0022") (str.to_re "&"))))) (re.* re.allchar))))))
(assert (<= 50 (str.len var0)))
(check-sat)
(get-model)
